c 2484 z 2392
332	124
664	248
581	217
249	93
372	368
415	155
651	644
372	368
279	276
465	460
166	62
830	310
415	155
558	552
744	736
558	552
166	62
279	276
664	248
279	276
830	310
664	248
837	828
664	248
558	552
279	276
93	92
415	155
930	920
279	276
664	248
166	62
837	828
581	217
465	460
837	828
744	736
186	184
279	276
744	736
651	644
465	460
837	828
332	124
664	248
581	217
837	828
747	279
930	920
186	184
93	92
664	248
747	279
332	124
830	310
651	644
744	736
558	552
744	736
664	248
415	155
186	184
498	186
930	920
558	552
837	828
93	92
166	62
279	276
651	644
744	736
279	276
249	93
415	155
415	155
166	62
415	155
651	644
581	217
930	920
930	920
249	93
830	310
465	460
249	93
279	276
93	92
558	552
93	92
465	460
581	217
664	248
558	552
83	31
415	155
744	736
415	155
186	184
332	124
186	184